&control
 calculation = 'scf'
 prefix = 'O',
 pseudo_dir = './',
 outdir = './'
/
&system
 ibrav = 1,
 a     = 1.00000e+01,
 nat   = 1,
 ntyp  = 1,
 ecutwfc = 30.0,
/
&electrons
 conv_thr = 1.0d-6
/
ATOMIC_SPECIES
O 15.99940 O.pz-n-rrkjus_psl.0.1.UPF
ATOMIC_POSITIONS {crystal}
O   0.500000   0.500000   0.500000
K_POINTS automatic
