&control
 calculation = 'scf'
 prefix = 'La',
 pseudo_dir = './',
 outdir = './'
/
&system
 ibrav = 1,
 a     = 1.00000e+01,
 nat   = 1,
 ntyp  = 1,
 ecutwfc = 30.0,
/
&electrons
 conv_thr = 1.0d-6
/
ATOMIC_SPECIES
La 138.90550 La.pz-spfn-rrkjus_psl.1.0.0.UPF
ATOMIC_POSITIONS {crystal}
La   0.500000   0.500000   0.500000
K_POINTS automatic
2 2 2 1 1 1
