&control
 calculation = 'vc-relax',
 prefix = 'La2O3',
 pseudo_dir = './',
 outdir = './',
 nstep = 300,
/
&system
 a = 3.80500e+00,
 c = 1.09831e+01,
 ibrav = 4,
 nat = 5,
 ntyp = 2,
 ecutwfc = 60.0,
 occupations = 'smearing',
 smearing = 'gauss',
 degauss = 1.00000e-02,
/
&electrons
 conv_thr = 1.0d-8
/
&IONS
/
&CELL
/
ATOMIC_SPECIES
 La 138.90550 La.pz-spfn-rrkjus_psl.1.0.0.UPF
 O 15.99940 O.pz-n-rrkjus_psl.0.1.UPF
ATOMIC_POSITIONS {crystal}
 La 0.333330 0.666670 0.653050
 La 0.666670 0.333330 0.346950
 O 0.333330 0.666670 0.278870
 O 0.666670 0.333330 0.721130
 O 0.000000 0.000000 0.500000
K_POINTS automatic
 4 4 4 1 1 1