&control
 calculation = 'vc-relax',
 prefix = 'La3Ni2O7',
 pseudo_dir = './',
 outdir = './',
 nstep = 300,
/
&system
 a = 1.03942e+01,
 b = 1.03713e+01,
 c = 5.50400e+00,
 cosab = -8.61576e-01,
 cosac = 2.78729e-03,
 cosbc = -2.02284e-03,
 ibrav = 14,
 nat = 24,
 ntyp = 3,
 ecutwfc = 60.0,
 occupations = 'smearing',
 smearing = 'gauss',
 degauss = 1.00000e-02,
/
&electrons
 conv_thr = 1.0d-8
/

&IONS
/
&CELL
/
ATOMIC_SPECIES
 La 138.90550 La.pz-spfn-rrkjus_psl.1.0.0.UPF
 Ni 58.69340 Ni.pz-n-rrkjus_psl.0.1.UPF
 O 15.99940 O.pz-n-rrkjus_psl.0.1.UPF
ATOMIC_POSITIONS {crystal}
 La 0.563736 0.925124 0.264630
 La 0.436461 0.075051 0.764810
 La 0.920240 0.569928 0.263590
 La 0.079817 0.430006 0.763690
 La 0.749013 0.757611 0.229280
 La 0.250744 0.242194 0.729340
 Ni 0.345443 0.152282 0.249210
 Ni 0.654155 0.847323 0.749160
 Ni 0.152976 0.345745 0.249610
 Ni 0.846481 0.653880 0.749510
 O 0.099815 0.899043 0.997910
 O 0.899792 0.100811 0.497750
 O 0.893722 0.094991 0.005850
 O 0.106876 0.905183 0.506200
 O 0.591377 0.405776 0.501190
 O 0.409250 0.594819 0.000880
 O 0.408500 0.593389 0.497270
 O 0.591577 0.406946 0.996590
 O 0.465201 0.066551 0.247230
 O 0.534966 0.933434 0.747850
 O 0.776983 0.777941 0.746190
 O 0.223034 0.222753 0.246320
 O 0.933119 0.530238 0.747970
 O 0.066888 0.469197 0.248000
 K_POINTS automatic
 4 4 4 1 1 1
