&control
calculation = 'scf',
prefix = 'La3Ni2O7',
pseudo_dir = './',
outdir = './'
/
&system
ibrav =  8,
a     =  2.03130e+01,
b     =  5.60630e+00,
c     =  5.45710e+00,
nat   = 52,
ntyp  = 3,
ecutwfc = 30.0,
/
&electrons
conv_thr = 1.0d-6
/
ATOMIC_SPECIES
La    138.90550  La.pz-spfn-rrkjus_psl.1.0.0.UPF
Ni     58.69340  Ni.pz-n-rrkjus_psl.0.1.UPF
O      15.99940  O.pz-n-rrkjus_psl.0.1.UPF
ATOMIC_POSITIONS {crystal}
La      0.180290   0.236280   0.250000
La      0.819710   0.763720   0.750000
La      0.819710   0.236280   0.250000
La      0.180290   0.763720   0.750000
La      0.680290   0.736280   0.250000
La      0.319710   0.263720   0.750000
La      0.319710   0.736280   0.250000
La      0.680290   0.263720   0.750000
La      0.000000   0.249370   0.250000
La      0.000000   0.750630   0.750000
La      0.500000   0.749370   0.250000
La      0.500000   0.250630   0.750000
Ni      0.097450   0.252960   0.750000
Ni      0.902550   0.747040   0.250000
Ni      0.902550   0.252960   0.750000
Ni      0.097450   0.747040   0.250000
Ni      0.597450   0.752960   0.750000
Ni      0.402550   0.247040   0.250000
Ni      0.402550   0.752960   0.750000
Ni      0.597450   0.247040   0.250000
O       0.204840   0.192190   0.750000
O       0.795160   0.807810   0.250000
O       0.795160   0.192190   0.750000
O       0.204840   0.807810   0.250000
O       0.704840   0.692190   0.750000
O       0.295160   0.307810   0.250000
O       0.295160   0.692190   0.750000
O       0.704840   0.307810   0.250000
O       0.085380   0.000000   0.000000
O       0.914620   0.000000   0.500000
O       0.914620   0.000000   0.000000
O       0.085380   0.000000   0.500000
O       0.585380   0.500000   0.000000
O       0.414620   0.500000   0.500000
O       0.414620   0.500000   0.000000
O       0.585380   0.500000   0.500000
O       0.111730   0.500000   0.000000
O       0.888270   0.500000   0.500000
O       0.888270   0.500000   0.000000
O       0.111730   0.500000   0.500000
O       0.611730   1.000000   0.000000
O       0.388270   0.000000   0.500000
O       0.388270   1.000000   0.500000
O       0.611730   0.000000   0.000000
O       0.388270   0.000000   0.000000
O       0.611730   1.000000   0.500000
O       0.611730   0.000000   0.500000
O       0.388270   1.000000   0.000000
O       0.000000   0.326380   0.750000
O       0.000000   0.673620   0.250000
O       0.500000   0.826380   0.750000
O       0.500000   0.173620   0.250000
K_POINTS automatic
2 2 2 1 1 1

