&control
 calculation = 'vc-relax',
 prefix = 'La4Ni3O10',
 pseudo_dir = './',
 outdir = './',
 nstep = 300,
/
&system
 a = 1.38852e+01,
 b = 1.38729e+01,
 c = 6.04290e+00,
 cosab = -9.26824e-01,
 cosac = -1.81514e-03,
 cosbc = 4.04916e-04,
 ibrav = 14,
 nat = 34,
 ntyp = 3,
 ecutwfc = 60.0,
 occupations = 'smearing',
 smearing = 'gauss',
 degauss = 1.00000e-02,
/
&electrons
 conv_thr = 1.0d-8
/
&IONS
/
&CELL
/
ATOMIC_SPECIES
 La 138.90550 La.pz-spfn-rrkjus_psl.1.0.0.UPF
 Ni 58.69340 Ni.pz-n-rrkjus_psl.0.1.UPF
 O 15.99940 O.pz-n-rrkjus_psl.0.1.UPF
ATOMIC_POSITIONS {crystal}
 La 0.933220 0.071150 0.523640
 La 0.066710 0.928830 0.476480
 La 0.567570 0.428720 0.981070
 La 0.432410 0.571310 0.018890
 La 0.803350 0.198410 0.478030
 La 0.196690 0.801540 0.522020
 La 0.697010 0.301840 0.978790
 La 0.303050 0.698150 0.021110
 Ni 0.499880 0.499940 0.500090
 Ni 0.000070 0.000010 0.999960
 Ni 0.638450 0.360170 0.499160
 Ni 0.361550 0.639910 0.500950
 Ni 0.861070 0.139750 0.999690
 Ni 0.138940 0.860270 0.000420
 O 0.763680 0.739660 0.753520
 O 0.738040 0.762750 0.269160
 O 0.236190 0.260290 0.246610
 O 0.261870 0.237260 0.730980
 O 0.571910 0.431630 0.414830
 O 0.428070 0.568300 0.584820
 O 0.929180 0.069060 0.930010
 O 0.070860 0.930970 0.070090
 O 0.880960 0.616850 0.746630
 O 0.618200 0.882700 0.251120
 O 0.118960 0.383240 0.253300
 O 0.381730 0.117370 0.748950
 O 0.712800 0.286540 0.562760
 O 0.287340 0.713510 0.437400
 O 0.787160 0.213410 0.061740
 O 0.212810 0.786570 0.938170
 O 0.900030 0.600680 0.249560
 O 0.601830 0.901330 0.747710
 O 0.100150 0.399280 0.750280
 O 0.398350 0.098590 0.252230
 K_POINTS automatic
 4 4 4 1 1 1
