&control
calculation = 'scf',
prefix = 'La4Ni3O10',
pseudo_dir = './',
outdir = './'
/
&system
ibrav = 8,
a     =  5.45710e+00,
b     =  2.79218e+01,
c     =  5.53780e+00,
nat   = 68,
ntyp  = 3,
ecutwfc = 30.0,
/
&electrons
conv_thr = 1.0d-6
/
ATOMIC_SPECIES
La    138.90550  La.pz-spfn-rrkjus_psl.1.0.0.UPF
Ni     58.69340  Ni.pz-n-rrkjus_psl.0.1.UPF
O      15.99940  O.pz-n-rrkjus_psl.0.1.UPF
ATOMIC_POSITIONS {crystal}
La      0.000000   0.067640   0.500030
La      0.000000   0.432360   0.000030
La      0.000000   0.567640   0.999970
La      0.000000   0.932360   0.499970
La      0.500000   0.567640   0.500030
La      0.500000   0.932360   0.000030
La      0.500000   0.067640   0.999970
La      0.500000   0.432360   0.499970
La      0.000000   0.198740   0.510760
La      0.000000   0.301260   0.010760
La      0.000000   0.698740   0.989240
La      0.000000   0.801260   0.489240
La      0.500000   0.698740   0.510760
La      0.500000   0.801260   0.010760
La      0.500000   0.198740   0.989240
La      0.500000   0.301260   0.489240
Ni      0.000000   0.139830   0.001740
Ni      0.000000   0.360170   0.501740
Ni      0.000000   0.639830   0.498260
Ni      0.000000   0.860170   0.998260
Ni      0.500000   0.639830   0.001740
Ni      0.500000   0.860170   0.501740
Ni      0.500000   0.139830   0.498260
Ni      0.500000   0.360170   0.998260
O       0.000000   0.068670   0.059880
O       0.000000   0.431330   0.559880
O       0.000000   0.568670   0.440120
O       0.000000   0.931330   0.940120
O       0.500000   0.568670   0.059880
O       0.500000   0.931330   0.559880
O       0.500000   0.068670   0.440120
O       0.500000   0.431330   0.940120
O       0.000000   0.217090   0.959800
O       0.000000   0.282910   0.459800
O       0.000000   0.717090   0.540200
O       0.000000   0.782910   0.040200
O       0.500000   0.717090   0.959800
O       0.500000   0.782910   0.459800
O       0.500000   0.217090   0.540200
O       0.500000   0.282910   0.040200
Ni      0.000000   0.000000   0.000000
Ni      0.000000   0.500000   0.500000
Ni      0.500000   0.500000   0.000000
Ni      0.500000   0.000000   0.500000
O       0.250000   0.008870   0.750000
O       0.750000   0.491130   0.250000
O       0.750000   0.508870   0.750000
O       0.250000   0.991130   0.250000
O       0.750000   0.991130   0.250000
O       0.250000   0.508870   0.750000
O       0.250000   0.491130   0.250000
O       0.750000   0.008870   0.750000
O       0.250000   0.133360   0.750000
O       0.750000   0.366640   0.250000
O       0.750000   0.633360   0.750000
O       0.250000   0.866640   0.250000
O       0.750000   0.866640   0.250000
O       0.250000   0.633360   0.750000
O       0.250000   0.366640   0.250000
O       0.750000   0.133360   0.750000
O       0.250000   0.146710   0.250000
O       0.750000   0.353290   0.750000
O       0.750000   0.646710   0.250000
O       0.250000   0.853290   0.750000
O       0.750000   0.853290   0.750000
O       0.250000   0.646710   0.250000
O       0.250000   0.353290   0.750000
O       0.750000   0.146710   0.250000
K_POINTS automatic
2 2 2 1 1 1

