&control
calculation = 'vc-relax',
prefix = 'LaNiO3',
pseudo_dir = './',
outdir = './',
nstep = 300,
/
&system
a = 3.85710e+00,
ibrav = 1,
nat = 5,
ntyp = 3,
ecutwfc = 60.0,
occupations = 'smearing',
smearing = 'gauss',
degauss = 1.00000e-02,
/
&electrons
conv_thr = 1.0d-8
/
&IONS
/
&CELL
/
ATOMIC_SPECIES
La 138.90550 La.pz-spfn-rrkjus_psl.1.0.0.UPF
Ni 58.69340 Ni.pz-n-rrkjus_psl.0.1.UPF

O 15.99940 O.pz-n-rrkjus_psl.0.1.UPF
ATOMIC_POSITIONS {crystal}
La 0.500000 0.500000 0.500000
Ni 0.000000 0.000000 0.000000
O 0.000000 0.000000 0.500000
O 0.500000 0.000000 0.000000
O 0.000000 0.500000 0.000000
K_POINTS automatic
4 4 4 1 1 1