&control
calculation = 'scf',
prefix = 'LaNiO3',
pseudo_dir = './',
outdir = './'
/
&system
ibrav = 4,
a     =  5.45350e+00,
c     =  1.31014e+01,
nat   = 30,
ntyp  = 3,
ecutwfc = 30.0,
/
&electrons
conv_thr = 1.0d-6
/
ATOMIC_SPECIES
La    138.90550  La.pz-spfn-rrkjus_psl.1.0.0.UPF
Ni     58.69340  Ni.pz-n-rrkjus_psl.0.1.UPF
O      15.99940  O.pz-n-rrkjus_psl.0.1.UPF
ATOMIC_POSITIONS {crystal}
La      0.000000   0.000000   0.250000
La      0.000000   0.000000   0.750000
La      0.666667   0.333333   0.583333
La      0.666667   0.333333   0.083333
La      0.333333   0.666667   0.916667
La      0.333333   0.666667   0.416667
Ni      0.000000   0.000000   0.000000
Ni      0.000000   0.000000   0.500000
Ni      0.666667   0.333333   0.333333
Ni      0.666667   0.333333   0.833333
Ni      0.333333   0.666667   0.666667
Ni      0.333333   0.666667   0.166667
O       0.546800   0.000000   0.250000
O       0.000000   0.546800   0.250000
O       0.453200   0.453200   0.250000
O       0.453200   0.000000   0.750000
O       0.000000   0.453200   0.750000
O       0.546800   0.546800   0.750000
O       0.213467   0.333333   0.583333
O       0.666667   0.880133   0.583333
O       0.119867   0.786533   0.583333
O       0.119867   0.333333   0.083333
O       0.666667   0.786533   0.083333
O       0.213467   0.880133   0.083333
O       0.880133   0.666667   0.916667
O       0.333333   0.213467   0.916667
O       0.786533   0.119867   0.916667
O       0.786533   0.666667   0.416667
O       0.333333   0.119867   0.416667
O       0.880133   0.213467   0.416667
K_POINTS automatic
2 2 2 1 1 1

