&control
 calculation = 'scf'
 prefix = 'Ni',
 pseudo_dir = './',
 outdir = './'
/
&system
 ibrav = 1,
 a     = 1.00000e+01,
 nat   = 1,
 ntyp  = 1,
 ecutwfc = 30.0,
/
&electrons
 conv_thr = 1.0d-6
/
ATOMIC_SPECIES
Ni 58.69340 Ni.pz-n-rrkjus_psl.0.1.UPF
ATOMIC_POSITIONS {crystal}
Ni   0.500000   0.500000   0.500000
K_POINTS automatic
2 2 2 1 1 1