&control
calculation = 'scf',
prefix = 'O2',
pseudo_dir = './',
outdir = './'
/
&system
ibrav = 1,
a     =  1.00000e+01,
nat   = 2,
ntyp  = 1,
ecutwfc = 30.0,
/
&electrons
conv_thr = 1.0d-6
/
ATOMIC_SPECIES
O      15.99940  O.pz-n-rrkjus_psl.0.1.UPF
ATOMIC_POSITIONS {crystal}
O       0.500000   0.500000   0.938520
O       0.500000   0.500000   0.061480
K_POINTS automatic
2 2 2 1 1 1

