&control
calculation = 'vc-relax',
prefix = 'O2',
pseudo_dir = './',
outdir = './',
nstep = 300,
/
&system
 a = 1.25310e+01,
 c = 9.64700e+00,
 ibrav = 6,
 nat = 2,
 ntyp = 1,
 ecutwfc = 60.0,
 occupations = 'smearing',
 smearing = 'gauss',
 degauss = 1.00000e-02,
/
&electrons
 conv_thr = 1.0d-8
/
&IONS
/
&CELL
/
ATOMIC_SPECIES
 O 15.99940 O.pz-n-rrkjus_psl.0.1.UPF
ATOMIC_POSITIONS {crystal}
 O 0.500000 0.500000 0.936430
 O 0.500000 0.500000 0.063570
K_POINTS automatic
 4 4 4 1 1 1
